2044092
1 7 35813
7 2 108023
2 17 23709
17 13 27808
13 9 45505
9 12 50022
12 6 255761
6 20 207524
20 11 34793
11 5 43367
5 14 90180
14 10 95892
10 16 21151
16 4 223221
4 19 238490
19 15 105167
15 8 67784
8 18 112034
18 3 140190
3 1 117658
